20	5
0	9	1	7	8	4	6	9	2	3	5
1	2	15	10
2	1	19
3	1	10
4	1	19
5	1	16
6	1	13
7	1	11
8	3	20	12	19
9	1	14
10	2	18	20
11	3	19	12	20
12	2	17	14
13	1	12
14	1	21
15	1	21
16	1	21
17	1	21
18	1	21
19	1	21
20	1	21
21	0
0	0	0	0	0	0	0
1	1	5	0	4	3	2
2	6	5	3	3	4	0
3	5	5	1	0	5	3
4	4	4	1	2	0	4
5	5	5	0	0	0	0
6	5	1	2	3	3	4
7	4	5	4	5	4	5
8	5	2	0	3	3	3
9	5	1	1	4	5	3
10	6	1	4	0	5	4
11	2	4	5	0	5	0
12	6	4	5	2	0	4
13	4	3	2	4	1	4
14	4	0	0	0	0	4
15	10	0	0	0	0	1
16	3	1	1	0	1	2
17	9	4	0	5	3	2
18	7	0	5	2	5	0
19	6	2	5	4	2	1
20	6	1	5	5	2	3
21	0	0	0	0	0	0
18	10	11	12	12
